Maximize
  750 Notebook + 1000 Desktop
Subject To
  chips: 1 Notebook + 1 Desktop <= 10000
  memory: 1 Notebook + 2 Desktop <= 15000
  assemblytime: 4 Notebook + 3 Desktop <= 25000
Bounds
  Notebook >= 0
  Desktop >= 0
Integers
  Notebook Desktop
End
